model.dimacs
c 1 MBEDTLS_AES_C
c 2 MBEDTLS_AES_C_CIPHER
c 3 MBEDTLS_AES_ROM_TABLES
c 4 MBEDTLS_AESNI_C
c 5 MBEDTLS_ARC4_C
c 6 MBEDTLS_ASN1_PARSE_C
c 7 MBEDTLS_ASN1_WRITE_C
c 8 MBEDTLS_BASE64_C
c 9 MBEDTLS_BIGNUM_C
c 10 MBEDTLS_BLOWFISH_C
c 11 MBEDTLS_CAMELLIA_C
c 12 MBEDTLS_CCM_C
c 13 MBEDTLS_CCM_C_CM
c 14 MBEDTLS_CERTS_C
c 15 MBEDTLS_CIPHER_C
c 16 MBEDTLS_CIPHER_MODE_C
c 17 MBEDTLS_CIPHER_MODE_CBC
c 18 MBEDTLS_CIPHER_MODE_CBC_CM
c 19 MBEDTLS_CIPHER_MODE_CFB
c 20 MBEDTLS_CIPHER_MODE_CFB_CM
c 21 MBEDTLS_CIPHER_MODE_CTR
c 22 MBEDTLS_CIPHER_MODE_CTR_CM
c 23 MBEDTLS_CIPHER_MODE_ECB
c 24 MBEDTLS_CIPHER_MODE_STREAM
c 25 MBEDTLS_CIPHER_MODE_STREAM_CM
c 26 MBEDTLS_CIPHER_NULL_CIPHER
c 27 MBEDTLS_CIPHER_PADDING_ZEROS
c 28 MBEDTLS_CTR_DRBG_C
c 29 MBEDTLS_DES_C
c 30 MBEDTLS_DHM_C
c 31 MBEDTLS_ECDH_C
c 32 MBEDTLS_ECDSA_C
c 33 MBEDTLS_ECP_C
c 34 MBEDTLS_ECP_DP
c 35 MBEDTLS_ECP_DP_SECP192R1_ENABLED
c 36 MBEDTLS_ECP_DP_SECP224R1_ENABLED
c 37 MBEDTLS_ECP_NIST_OPTIM
c 38 MBEDTLS_ENABLE_WEAK_CIPHERSUITES
c 39 MBEDTLS_ENTROPY_C
c 40 MBEDTLS_FS_IO
c 41 MBEDTLS_GCM_C
c 42 MBEDTLS_GCM_C_CM
c 43 MBEDTLS_GENPRIME
c 44 MBEDTLS_HAVE_ASM
c 45 MBEDTLS_HAVE_SSE2
c 46 MBEDTLS_HAVE_TIME
c 47 MBEDTLS_HAVE_TIME_DATE
c 48 MBEDTLS_HMAC_DRBG_C
c 49 MBEDTLS_KEY_EXCHANGE_C
c 50 MBEDTLS_KEY_EXCHANGE_DHE_PSK_ENABLED
c 51 MBEDTLS_KEY_EXCHANGE_ECDHE_PSK_ENABLED
c 52 MBEDTLS_KEY_EXCHANGE_PSK_ENABLED
c 53 MBEDTLS_KEY_EXCHANGE_DHE_RSA_ENABLED
c 54 MBEDTLS_KEY_EXCHANGE_ECDH_ECDSA_ENABLED
c 55 MBEDTLS_KEY_EXCHANGE_ECDHE_ECDSA_ENABLED
c 56 MBEDTLS_KEY_EXCHANGE_ECDHE_RSA_ENABLED
c 57 MBEDTLS_KEY_EXCHANGE_ECDH_RSA_ENABLED
c 58 MBEDTLS_KEY_EXCHANGE_ECJPAKE_ENABLED
c 59 MBEDTLS_KEY_EXCHANGE_RSA_ENABLED
c 60 MBEDTLS_KEY_EXCHANGE_RSA_PSK_ENABLED
c 61 MBEDTLS_MD_C
c 62 MBEDTLS_MD5_C
c 63 MBEDTLS_MD5_C_MD
c 64 MBEDTLS_NET_C
c 65 MBEDTLS_OID_C
c 66 MBEDTLS_PEM_PARSE_C
c 67 MBEDTLS_PEM_WRITE_C
c 68 MBEDTLS_PK_C
c 69 MBEDTLS_PK_PARSE_C
c 70 MBEDTLS_PK_PARSE_EC_EXTENDED
c 71 MBEDTLS_PK_WRITE_C
c 72 MBEDTLS_PKCS1_V15
c 73 MBEDTLS_PKCS1_V21
c 74 MBEDTLS_PKCS12_C
c 75 MBEDTLS_PKCS5_C
c 76 MBEDTLS_RIPEMD160_C
c 77 MBEDTLS_RSA_C
c 78 MBEDTLS_SHA1_C_MD
c 79 MBEDTLS_SHA256_C_MD
c 80 MBEDTLS_SHA256_SMALLER
c 81 MBEDTLS_SSL_CACHE_C
c 82 MBEDTLS_SSL_CBC_RECORD_SPLITTING
c 83 MBEDTLS_SSL_CLI_C
c 84 MBEDTLS_SSL_COOKIE_C
c 85 MBEDTLS_SSL_MAX_FRAGMENT_LENGTH
c 86 MBEDTLS_SSL_PROTO_TLS1
c 87 MBEDTLS_SSL_PROTO_TLS1_1
c 88 MBEDTLS_SSL_PROTO_TLS1_2
c 89 MBEDTLS_SSL_SRV_C
c 90 MBEDTLS_SSL_TICKET_C
c 91 MBEDTLS_SSL_TLS_C
c 92 MBEDTLS_TIMING_C
c 93 MBEDTLS_X509_CHECK_EXTENDED_KEY_USAGE
c 94 MBEDTLS_X509_CHECK_KEY_USAGE
c 95 MBEDTLS_X509_CREATE_C
c 96 MBEDTLS_X509_CRL_PARSE_C
c 97 MBEDTLS_X509_CRT_PARSE_C
c 98 MBEDTLS_X509_CRT_WRITE_C
c 99 MBEDTLS_X509_CSR_PARSE_C
c 100 MBEDTLS_X509_CSR_WRITE_C
c 101 MBEDTLS_X509_RSASSA_PSS_SUPPORT
c 102 MBEDTLS_X509_USE_C
c 103 MBEDTLS_ZLIB_SUPPORT
p cnf 103 0
